instances/shortest_path/discrete/shortest_path_8_19.lp
\ Model nohadani_8_19
\ LP format - for model browsing. Use MPS format to capture full model detail.
\ Signature: 0x229cff0c87735314
Minimize
  60.14149981501958 y[0,1] + 48.82622246293481 y[0,2]
   + 76.48529270389177 y[0,3] + 35.17101079013795 y[0,4]
   + 20.24845673131659 y[0,6] + 50 y[0,7] + 60.14149981501958 y[1,0]
   + 16.0312195418814 y[1,2] + 44.68780594300866 y[1,3]
   + 50.99019513592785 y[1,4] + 37.94733192202055 y[1,5]
   + 43.04648650006177 y[1,6] + 55.14526271584895 y[1,7]
   + 48.82622246293481 y[2,0] + 16.0312195418814 y[2,1]
   + 37.33630940518894 y[2,3] + 49.36598018878993 y[2,4]
   + 37.21558813185679 y[2,5] + 29.69848480983499 y[2,6]
   + 57.58472019555187 y[2,7] + 76.48529270389177 y[3,0]
   + 44.68780594300866 y[3,1] + 37.33630940518894 y[3,2]
   + 17.11724276862369 y[3,5] + 56.5685424949238 y[3,6]
   + 35.17101079013795 y[4,0] + 50.99019513592785 y[4,1]
   + 49.36598018878993 y[4,2] + 38.89730067755345 y[4,6]
   + 14.86606874731851 y[4,7] + 37.94733192202055 y[5,1]
   + 37.21558813185679 y[5,2] + 17.11724276862369 y[5,3]
   + 63.15853069855251 y[5,6] + 20.24845673131659 y[6,0]
   + 43.04648650006177 y[6,1] + 29.69848480983499 y[6,2]
   + 56.5685424949238 y[6,3] + 38.89730067755345 y[6,4]
   + 63.15853069855251 y[6,5] + 52.63078946776307 y[6,7] + 50 y[7,0]
   + 55.14526271584895 y[7,1] + 57.58472019555187 y[7,2]
   + 14.86606874731851 y[7,4] + 52.63078946776307 y[7,6] + x[0,1] + x[0,2]
   + x[0,3] + x[0,4] + x[0,6] + x[0,7] + x[1,0] + x[1,2] + x[1,3] + x[1,4]
   + x[1,5] + x[1,6] + x[1,7] + x[2,0] + x[2,1] + x[2,3] + x[2,4] + x[2,5]
   + x[2,6] + x[2,7] + x[3,0] + x[3,1] + x[3,2] + x[3,5] + x[3,6] + x[4,0]
   + x[4,1] + x[4,2] + x[4,6] + x[4,7] + x[5,1] + x[5,2] + x[5,3] + x[5,6]
   + x[6,0] + x[6,1] + x[6,2] + x[6,3] + x[6,4] + x[6,5] + x[6,7] + x[7,0]
   + x[7,1] + x[7,2] + x[7,4] + x[7,6] + 6.014149981501959 r[0,1]
   + 4.882622246293481 r[0,2] + 7.648529270389178 r[0,3]
   + 3.517101079013795 r[0,4] + 2.024845673131659 r[0,6] + 5 r[0,7]
   + 6.014149981501959 r[1,0] + 1.60312195418814 r[1,2]
   + 4.468780594300866 r[1,3] + 5.099019513592785 r[1,4]
   + 3.794733192202056 r[1,5] + 4.304648650006177 r[1,6]
   + 5.514526271584895 r[1,7] + 4.882622246293481 r[2,0]
   + 1.60312195418814 r[2,1] + 3.733630940518895 r[2,3]
   + 4.936598018878994 r[2,4] + 3.721558813185679 r[2,5]
   + 2.9698484809835 r[2,6] + 5.758472019555188 r[2,7]
   + 7.648529270389178 r[3,0] + 4.468780594300866 r[3,1]
   + 3.733630940518895 r[3,2] + 1.711724276862369 r[3,5]
   + 5.656854249492381 r[3,6] + 3.517101079013795 r[4,0]
   + 5.099019513592785 r[4,1] + 4.936598018878994 r[4,2]
   + 3.889730067755345 r[4,6] + 1.486606874731851 r[4,7]
   + 3.794733192202056 r[5,1] + 3.721558813185679 r[5,2]
   + 1.711724276862369 r[5,3] + 6.315853069855251 r[5,6]
   + 2.024845673131659 r[6,0] + 4.304648650006177 r[6,1]
   + 2.9698484809835 r[6,2] + 5.656854249492381 r[6,3]
   + 3.889730067755345 r[6,4] + 6.315853069855251 r[6,5]
   + 5.263078946776307 r[6,7] + 5 r[7,0] + 5.514526271584895 r[7,1]
   + 5.758472019555188 r[7,2] + 1.486606874731851 r[7,4]
   + 5.263078946776307 r[7,6]
Subject To
 flow_cons_inner_nodes[0]: - y[0,1] - y[0,2] - y[0,3] - y[0,4] - y[0,6]
   - y[0,7] + y[1,0] + y[2,0] + y[3,0] + y[4,0] + y[6,0] + y[7,0] = 0
 flow_cons_inner_nodes[1]: y[0,1] - y[1,0] - y[1,2] - y[1,3] - y[1,4]
   - y[1,5] - y[1,6] - y[1,7] + y[2,1] + y[3,1] + y[4,1] + y[5,1] + y[6,1]
   + y[7,1] = 0
 flow_cons_inner_nodes[2]: y[0,2] + y[1,2] - y[2,0] - y[2,1] - y[2,3]
   - y[2,4] - y[2,5] - y[2,6] - y[2,7] + y[3,2] + y[4,2] + y[5,2] + y[6,2]
   + y[7,2] = 0
 flow_cons_inner_nodes[4]: y[0,4] + y[1,4] + y[2,4] - y[4,0] - y[4,1]
   - y[4,2] - y[4,6] - y[4,7] + y[6,4] + y[7,4] = 0
 flow_cons_inner_nodes[5]: y[1,5] + y[2,5] + y[3,5] - y[5,1] - y[5,2]
   - y[5,3] - y[5,6] + y[6,5] = 0
 flow_cons_inner_nodes[6]: y[0,6] + y[1,6] + y[2,6] + y[3,6] + y[4,6]
   + y[5,6] - y[6,0] - y[6,1] - y[6,2] - y[6,3] - y[6,4] - y[6,5] - y[6,7]
   + y[7,6] = 0
 flow_cons_source: - y[0,3] - y[1,3] - y[2,3] + y[3,0] + y[3,1] + y[3,2]
   + y[3,5] + y[3,6] - y[5,3] - y[6,3] = 1
 flow_cons_target: y[0,7] + y[1,7] + y[2,7] + y[4,7] + y[6,7] - y[7,0]
   - y[7,1] - y[7,2] - y[7,4] - y[7,6] = 1
 primal_lower: 2.801404684579182 x[0,1] + 3.705121235417276 x[0,2]
   + 3.695921388239475 x[0,3] + 1.679442215517984 x[0,4]
   + 1.9784572759512 x[0,6] + 2.924740159340927 x[0,7]
   + 2.554194194124295 x[1,0] + 0.4770375196433805 x[1,2]
   + 3.553056641671632 x[1,3] + 2.025896278815787 x[1,4]
   + 1.34567901627277 x[1,5] + 0.6827387109747723 x[1,6]
   + 2.907536717495498 x[1,7] + 1.316893077327601 x[2,0]
   + 0.9737399970645887 x[2,1] + 3.719539402560586 x[2,3]
   + 1.891154476031105 x[2,4] + 3.844719131600923 x[2,5]
   + 3.725810767711713 x[2,6] + 2.053870147165989 x[2,7]
   + 1.892073183106892 x[3,0] + 1.497655110846545 x[3,1]
   + 3.490395642837269 x[3,2] + 2.704071942572253 x[3,5]
   + 2.469072825230447 x[3,6] + 2.832549615689384 x[4,0]
   + 2.971369307023209 x[4,1] + 3.425028812061428 x[4,2]
   + 1.536405898691304 x[4,6] + 3.333988800469982 x[4,7]
   + 0.0322883675417836 x[5,1] + 1.834973471269805 x[5,2]
   + 1.114537726536765 x[5,3] + 2.796213870898987 x[5,6]
   + 1.428034709249459 x[6,0] + 2.688403644991295 x[6,1]
   + 3.141881179335449 x[6,2] + 2.608514816832983 x[6,3]
   + 3.209093119243883 x[6,4] + 2.585644776486686 x[6,5]
   + 2.587894923738811 x[6,7] + 0.8115297632949778 x[7,0]
   + 1.250925914910853 x[7,1] + 1.875670209777537 x[7,2]
   + 0.2024682100320439 x[7,4] + 2.131793396647187 x[7,6] + 36 u[0,1]
   + 85 u[0,2] + 71 u[0,3] + 96 u[0,4] + u[0,6] + 22 u[0,7] + 18 u[1,0]
   + 4 u[1,2] + 26 u[1,3] + 15 u[1,4] + 88 u[1,5] + 44 u[1,6] + 93 u[1,7]
   + 9 u[2,0] + 57 u[2,1] + 77 u[2,3] + 54 u[2,4] + 5 u[2,5] + 78 u[2,6]
   + 27 u[2,7] + 78 u[3,0] + 40 u[3,1] + 9 u[3,2] + 31 u[3,5] + u[3,6]
   + 37 u[4,0] + 3 u[4,1] + 76 u[4,2] + 50 u[4,6] + 16 u[4,7] + 54 u[5,1]
   + 32 u[5,2] + 68 u[5,3] + 98 u[5,6] + 21 u[6,0] + 6 u[6,1] + 13 u[6,2]
   + 41 u[6,3] + 85 u[6,4] + 67 u[6,5] + 88 u[6,7] + 2 u[7,0] + 59 u[7,1]
   + 6 u[7,2] + 44 u[7,4] + 43 u[7,6] <= 179
 mccormick1[0,1]: - u[0,1] + r[0,1] <= 0
 mccormick1[0,2]: - u[0,2] + r[0,2] <= 0
 mccormick1[0,3]: - u[0,3] + r[0,3] <= 0
 mccormick1[0,4]: - u[0,4] + r[0,4] <= 0
 mccormick1[0,6]: - u[0,6] + r[0,6] <= 0
 mccormick1[0,7]: - u[0,7] + r[0,7] <= 0
 mccormick1[1,0]: - u[1,0] + r[1,0] <= 0
 mccormick1[1,2]: - u[1,2] + r[1,2] <= 0
 mccormick1[1,3]: - u[1,3] + r[1,3] <= 0
 mccormick1[1,4]: - u[1,4] + r[1,4] <= 0
 mccormick1[1,5]: - u[1,5] + r[1,5] <= 0
 mccormick1[1,6]: - u[1,6] + r[1,6] <= 0
 mccormick1[1,7]: - u[1,7] + r[1,7] <= 0
 mccormick1[2,0]: - u[2,0] + r[2,0] <= 0
 mccormick1[2,1]: - u[2,1] + r[2,1] <= 0
 mccormick1[2,3]: - u[2,3] + r[2,3] <= 0
 mccormick1[2,4]: - u[2,4] + r[2,4] <= 0
 mccormick1[2,5]: - u[2,5] + r[2,5] <= 0
 mccormick1[2,6]: - u[2,6] + r[2,6] <= 0
 mccormick1[2,7]: - u[2,7] + r[2,7] <= 0
 mccormick1[3,0]: - u[3,0] + r[3,0] <= 0
 mccormick1[3,1]: - u[3,1] + r[3,1] <= 0
 mccormick1[3,2]: - u[3,2] + r[3,2] <= 0
 mccormick1[3,5]: - u[3,5] + r[3,5] <= 0
 mccormick1[3,6]: - u[3,6] + r[3,6] <= 0
 mccormick1[4,0]: - u[4,0] + r[4,0] <= 0
 mccormick1[4,1]: - u[4,1] + r[4,1] <= 0
 mccormick1[4,2]: - u[4,2] + r[4,2] <= 0
 mccormick1[4,6]: - u[4,6] + r[4,6] <= 0
 mccormick1[4,7]: - u[4,7] + r[4,7] <= 0
 mccormick1[5,1]: - u[5,1] + r[5,1] <= 0
 mccormick1[5,2]: - u[5,2] + r[5,2] <= 0
 mccormick1[5,3]: - u[5,3] + r[5,3] <= 0
 mccormick1[5,6]: - u[5,6] + r[5,6] <= 0
 mccormick1[6,0]: - u[6,0] + r[6,0] <= 0
 mccormick1[6,1]: - u[6,1] + r[6,1] <= 0
 mccormick1[6,2]: - u[6,2] + r[6,2] <= 0
 mccormick1[6,3]: - u[6,3] + r[6,3] <= 0
 mccormick1[6,4]: - u[6,4] + r[6,4] <= 0
 mccormick1[6,5]: - u[6,5] + r[6,5] <= 0
 mccormick1[6,7]: - u[6,7] + r[6,7] <= 0
 mccormick1[7,0]: - u[7,0] + r[7,0] <= 0
 mccormick1[7,1]: - u[7,1] + r[7,1] <= 0
 mccormick1[7,2]: - u[7,2] + r[7,2] <= 0
 mccormick1[7,4]: - u[7,4] + r[7,4] <= 0
 mccormick1[7,6]: - u[7,6] + r[7,6] <= 0
 mccormick2[0,1]: - y[0,1] + r[0,1] <= 0
 mccormick2[0,2]: - y[0,2] + r[0,2] <= 0
 mccormick2[0,3]: - y[0,3] + r[0,3] <= 0
 mccormick2[0,4]: - y[0,4] + r[0,4] <= 0
 mccormick2[0,6]: - y[0,6] + r[0,6] <= 0
 mccormick2[0,7]: - y[0,7] + r[0,7] <= 0
 mccormick2[1,0]: - y[1,0] + r[1,0] <= 0
 mccormick2[1,2]: - y[1,2] + r[1,2] <= 0
 mccormick2[1,3]: - y[1,3] + r[1,3] <= 0
 mccormick2[1,4]: - y[1,4] + r[1,4] <= 0
 mccormick2[1,5]: - y[1,5] + r[1,5] <= 0
 mccormick2[1,6]: - y[1,6] + r[1,6] <= 0
 mccormick2[1,7]: - y[1,7] + r[1,7] <= 0
 mccormick2[2,0]: - y[2,0] + r[2,0] <= 0
 mccormick2[2,1]: - y[2,1] + r[2,1] <= 0
 mccormick2[2,3]: - y[2,3] + r[2,3] <= 0
 mccormick2[2,4]: - y[2,4] + r[2,4] <= 0
 mccormick2[2,5]: - y[2,5] + r[2,5] <= 0
 mccormick2[2,6]: - y[2,6] + r[2,6] <= 0
 mccormick2[2,7]: - y[2,7] + r[2,7] <= 0
 mccormick2[3,0]: - y[3,0] + r[3,0] <= 0
 mccormick2[3,1]: - y[3,1] + r[3,1] <= 0
 mccormick2[3,2]: - y[3,2] + r[3,2] <= 0
 mccormick2[3,5]: - y[3,5] + r[3,5] <= 0
 mccormick2[3,6]: - y[3,6] + r[3,6] <= 0
 mccormick2[4,0]: - y[4,0] + r[4,0] <= 0
 mccormick2[4,1]: - y[4,1] + r[4,1] <= 0
 mccormick2[4,2]: - y[4,2] + r[4,2] <= 0
 mccormick2[4,6]: - y[4,6] + r[4,6] <= 0
 mccormick2[4,7]: - y[4,7] + r[4,7] <= 0
 mccormick2[5,1]: - y[5,1] + r[5,1] <= 0
 mccormick2[5,2]: - y[5,2] + r[5,2] <= 0
 mccormick2[5,3]: - y[5,3] + r[5,3] <= 0
 mccormick2[5,6]: - y[5,6] + r[5,6] <= 0
 mccormick2[6,0]: - y[6,0] + r[6,0] <= 0
 mccormick2[6,1]: - y[6,1] + r[6,1] <= 0
 mccormick2[6,2]: - y[6,2] + r[6,2] <= 0
 mccormick2[6,3]: - y[6,3] + r[6,3] <= 0
 mccormick2[6,4]: - y[6,4] + r[6,4] <= 0
 mccormick2[6,5]: - y[6,5] + r[6,5] <= 0
 mccormick2[6,7]: - y[6,7] + r[6,7] <= 0
 mccormick2[7,0]: - y[7,0] + r[7,0] <= 0
 mccormick2[7,1]: - y[7,1] + r[7,1] <= 0
 mccormick2[7,2]: - y[7,2] + r[7,2] <= 0
 mccormick2[7,4]: - y[7,4] + r[7,4] <= 0
 mccormick2[7,6]: - y[7,6] + r[7,6] <= 0
 mccormick3[0,1]: - y[0,1] - u[0,1] + r[0,1] >= -1
 mccormick3[0,2]: - y[0,2] - u[0,2] + r[0,2] >= -1
 mccormick3[0,3]: - y[0,3] - u[0,3] + r[0,3] >= -1
 mccormick3[0,4]: - y[0,4] - u[0,4] + r[0,4] >= -1
 mccormick3[0,6]: - y[0,6] - u[0,6] + r[0,6] >= -1
 mccormick3[0,7]: - y[0,7] - u[0,7] + r[0,7] >= -1
 mccormick3[1,0]: - y[1,0] - u[1,0] + r[1,0] >= -1
 mccormick3[1,2]: - y[1,2] - u[1,2] + r[1,2] >= -1
 mccormick3[1,3]: - y[1,3] - u[1,3] + r[1,3] >= -1
 mccormick3[1,4]: - y[1,4] - u[1,4] + r[1,4] >= -1
 mccormick3[1,5]: - y[1,5] - u[1,5] + r[1,5] >= -1
 mccormick3[1,6]: - y[1,6] - u[1,6] + r[1,6] >= -1
 mccormick3[1,7]: - y[1,7] - u[1,7] + r[1,7] >= -1
 mccormick3[2,0]: - y[2,0] - u[2,0] + r[2,0] >= -1
 mccormick3[2,1]: - y[2,1] - u[2,1] + r[2,1] >= -1
 mccormick3[2,3]: - y[2,3] - u[2,3] + r[2,3] >= -1
 mccormick3[2,4]: - y[2,4] - u[2,4] + r[2,4] >= -1
 mccormick3[2,5]: - y[2,5] - u[2,5] + r[2,5] >= -1
 mccormick3[2,6]: - y[2,6] - u[2,6] + r[2,6] >= -1
 mccormick3[2,7]: - y[2,7] - u[2,7] + r[2,7] >= -1
 mccormick3[3,0]: - y[3,0] - u[3,0] + r[3,0] >= -1
 mccormick3[3,1]: - y[3,1] - u[3,1] + r[3,1] >= -1
 mccormick3[3,2]: - y[3,2] - u[3,2] + r[3,2] >= -1
 mccormick3[3,5]: - y[3,5] - u[3,5] + r[3,5] >= -1
 mccormick3[3,6]: - y[3,6] - u[3,6] + r[3,6] >= -1
 mccormick3[4,0]: - y[4,0] - u[4,0] + r[4,0] >= -1
 mccormick3[4,1]: - y[4,1] - u[4,1] + r[4,1] >= -1
 mccormick3[4,2]: - y[4,2] - u[4,2] + r[4,2] >= -1
 mccormick3[4,6]: - y[4,6] - u[4,6] + r[4,6] >= -1
 mccormick3[4,7]: - y[4,7] - u[4,7] + r[4,7] >= -1
 mccormick3[5,1]: - y[5,1] - u[5,1] + r[5,1] >= -1
 mccormick3[5,2]: - y[5,2] - u[5,2] + r[5,2] >= -1
 mccormick3[5,3]: - y[5,3] - u[5,3] + r[5,3] >= -1
 mccormick3[5,6]: - y[5,6] - u[5,6] + r[5,6] >= -1
 mccormick3[6,0]: - y[6,0] - u[6,0] + r[6,0] >= -1
 mccormick3[6,1]: - y[6,1] - u[6,1] + r[6,1] >= -1
 mccormick3[6,2]: - y[6,2] - u[6,2] + r[6,2] >= -1
 mccormick3[6,3]: - y[6,3] - u[6,3] + r[6,3] >= -1
 mccormick3[6,4]: - y[6,4] - u[6,4] + r[6,4] >= -1
 mccormick3[6,5]: - y[6,5] - u[6,5] + r[6,5] >= -1
 mccormick3[6,7]: - y[6,7] - u[6,7] + r[6,7] >= -1
 mccormick3[7,0]: - y[7,0] - u[7,0] + r[7,0] >= -1
 mccormick3[7,1]: - y[7,1] - u[7,1] + r[7,1] >= -1
 mccormick3[7,2]: - y[7,2] - u[7,2] + r[7,2] >= -1
 mccormick3[7,4]: - y[7,4] - u[7,4] + r[7,4] >= -1
 mccormick3[7,6]: - y[7,6] - u[7,6] + r[7,6] >= -1
Bounds
Binaries
 y[0,1] y[0,2] y[0,3] y[0,4] y[0,6] y[0,7] y[1,0] y[1,2] y[1,3] y[1,4]
 y[1,5] y[1,6] y[1,7] y[2,0] y[2,1] y[2,3] y[2,4] y[2,5] y[2,6] y[2,7]
 y[3,0] y[3,1] y[3,2] y[3,5] y[3,6] y[4,0] y[4,1] y[4,2] y[4,6] y[4,7]
 y[5,1] y[5,2] y[5,3] y[5,6] y[6,0] y[6,1] y[6,2] y[6,3] y[6,4] y[6,5]
 y[6,7] y[7,0] y[7,1] y[7,2] y[7,4] y[7,6] x[0,1] x[0,2] x[0,3] x[0,4]
 x[0,6] x[0,7] x[1,0] x[1,2] x[1,3] x[1,4] x[1,5] x[1,6] x[1,7] x[2,0]
 x[2,1] x[2,3] x[2,4] x[2,5] x[2,6] x[2,7] x[3,0] x[3,1] x[3,2] x[3,5]
 x[3,6] x[4,0] x[4,1] x[4,2] x[4,6] x[4,7] x[5,1] x[5,2] x[5,3] x[5,6]
 x[6,0] x[6,1] x[6,2] x[6,3] x[6,4] x[6,5] x[6,7] x[7,0] x[7,1] x[7,2]
 x[7,4] x[7,6] u[0,1] u[0,2] u[0,3] u[0,4] u[0,6] u[0,7] u[1,0] u[1,2]
 u[1,3] u[1,4] u[1,5] u[1,6] u[1,7] u[2,0] u[2,1] u[2,3] u[2,4] u[2,5]
 u[2,6] u[2,7] u[3,0] u[3,1] u[3,2] u[3,5] u[3,6] u[4,0] u[4,1] u[4,2]
 u[4,6] u[4,7] u[5,1] u[5,2] u[5,3] u[5,6] u[6,0] u[6,1] u[6,2] u[6,3]
 u[6,4] u[6,5] u[6,7] u[7,0] u[7,1] u[7,2] u[7,4] u[7,6] r[0,1] r[0,2]
 r[0,3] r[0,4] r[0,6] r[0,7] r[1,0] r[1,2] r[1,3] r[1,4] r[1,5] r[1,6]
 r[1,7] r[2,0] r[2,1] r[2,3] r[2,4] r[2,5] r[2,6] r[2,7] r[3,0] r[3,1]
 r[3,2] r[3,5] r[3,6] r[4,0] r[4,1] r[4,2] r[4,6] r[4,7] r[5,1] r[5,2]
 r[5,3] r[5,6] r[6,0] r[6,1] r[6,2] r[6,3] r[6,4] r[6,5] r[6,7] r[7,0]
 r[7,1] r[7,2] r[7,4] r[7,6]
End
