instances/shortest_path/discrete/shortest_path_8_19.kp
73431
179

[2.8014046845791825 3.705121235417276 3.6959213882394746 1.679442215517984 1.9784572759511998 2.924740159340927 2.5541941941242947 0.47703751964338054 3.553056641671632 2.0258962788157873 1.34567901627277 0.6827387109747723 2.9075367174954985 1.3168930773276006 0.9737399970645887 3.7195394025605863 1.891154476031105 3.8447191316009235 3.7258107677117134 2.0538701471659886 1.892073183106892 1.4976551108465446 3.490395642837269 2.7040719425722535 2.4690728252304472 2.832549615689384 2.9713693070232092 3.4250288120614276 1.5364058986913036 3.3339888004699825 0.03228836754178357 1.834973471269805 1.1145377265367653 2.7962138708989874 1.4280347092494585 2.6884036449912947 3.1418811793354493 2.6085148168329826 3.209093119243883 2.5856447764866863 2.587894923738811 0.8115297632949778 1.2509259149108531 1.8756702097775373 0.20246821003204393 2.1317933966471867]

[36 85 71 96 1 22 18 4 26 15 88 44 93 9 57 77 54 5 78 27 78 40 9 31 1 37 3 76 50 16 54 32 68 98 21 6 13 41 85 67 88 2 59 6 44 43]
